WARNING: for repeatability, setting FPU to use double precision
============================[ Problem Statistics ]=============================
|                                                                             |
|  Number of symmetries:          59                                          |
|  Number of invertingSyms:        0                                          |
|  Number of variables:           930                                         |
|  Number of clauses:           13981                                         |
|  Parse time:                   0.00 s                                       |
|                                                                             |
============================[ Search Statistics ]==============================
| Conflicts |          ORIGINAL         |          LEARNT          | Progress |
|           |    Vars  Clauses Literals |    Limit  Clauses Lit/Cl |          |
===============================================================================
|       100 |     930    13981    28830 |     5126      100    331 |  0.000 % |
|       250 |     930    13981    28830 |     5639      250    234 |  0.000 % |
|       475 |     930    13981    28830 |     6202      475    247 |  0.000 % |
|       812 |     930    13981    28830 |     6823      812    224 |  0.000 % |
|      1318 |     930    13981    28830 |     7505     1318    220 |  0.000 % |
|      2077 |     930    13981    28830 |     8256     2077    208 |  0.000 % |
|      3216 |     930    13981    28830 |     9081     3216    188 |  0.000 % |
|      4924 |     930    13981    28830 |     9989     4924    181 |  0.000 % |
|      7486 |     930    13981    28830 |    10988     7486    180 |  0.000 % |
|     11330 |     930    13981    28830 |    12087     5710    182 |  0.000 % |
|     17096 |     930    13981    28830 |    13296    11476    181 |  0.000 % |
|     25745 |     930    13981    28830 |    14626    13313    187 |  0.000 % |
|     38719 |     930    13981    28830 |    16088    11149    181 |  0.000 % |
|     58180 |     930    13981    28830 |    17697    13692    199 |  0.000 % |
|     87372 |     930    13981    28830 |    19467    15098    191 |  0.000 % |
|    131161 |     930    13981    28830 |    21414    19077    272 |  0.000 % |
|    196845 |     930    13981    28830 |    23555    19351    285 |  0.000 % |
|    295371 |     930    13981    28830 |    25911    19578    346 |  0.000 % |
|    443160 |     930    13981    28830 |    28502    18643    238 |  0.000 % |
|    664843 |     930    13981    28830 |    31352    14729    290 |  0.000 % |
|    997368 |     930    13981    28830 |    34487    20474    317 |  0.004 % |
|   1496156 |     930    13981    28830 |    37936    33195    216 |  0.000 % |
|   2244338 |     930    13981    28830 |    41730    25652    269 |  0.000 % |
|   3366612 |     930    13981    28830 |    45903    19929    224 |  0.000 % |
|   5050023 |     930    13981    28830 |    50493    30615    209 |  0.000 % |
|   7575139 |     930    13981    28830 |    55542    26656    459 |  0.000 % |
|  11362814 |     930    13981    28830 |    61096    20907    219 |  0.000 % |
|  17044326 |     930    13981    28830 |    67206    40851    233 |  0.000 % |
|  25566595 |     930    13981    28830 |    73927    54569    215 |  0.000 % |
===============================================================================
restarts              : 39282
conflicts             : 28328734       (5596 /sec)
symconflicts          : 1315926        (260 /sec)
decisions             : 58852362       (0.00 % random) (11626 /sec)
propagations          : 585335593      (115627 /sec)
sympropagations       : 5930108        (1171 /sec)
conflict literals     : 7398427787     (5.19 % deleted)
Memory used           : 539.00 MB
CPU time              : 5062.26 s

INDETERMINATE
